c Circuit-CNF generated by TG-PRO v1.0 (c) Huan Chen and Joao Marques-Silva
p cnf 495 1216
-1 2 0
1 -2 0
-3 4 0
3 -4 0
-5 6 0
5 -6 0
-7 8 0
7 -8 0
-9 10 0
9 -10 0
-11 12 0
11 -12 0
-13 14 0
13 -14 0
-15 16 0
15 -16 0
-17 18 0
17 -18 0
-19 20 0
19 -20 0
-21 22 0
21 -22 0
-23 24 0
23 -24 0
-25 26 0
25 -26 0
-27 28 0
27 -28 0
-29 30 0
29 -30 0
-31 32 0
31 -32 0
-33 34 0
33 -34 0
-35 36 0
35 -36 0
-37 38 0
37 -38 0
-39 40 0
39 -40 0
-41 42 0
41 -42 0
-43 44 0
43 -44 0
-45 46 0
45 -46 0
-47 48 0
47 -48 0
-49 50 0
49 -50 0
-51 52 0
51 -52 0
53 54 0
53 55 0
-53 -54 -55 0
56 57 0
56 55 0
-56 -57 -55 0
-58 59 0
-58 60 0
58 -59 -60 0
-61 62 0
-61 63 0
61 -62 -63 0
64 65 0
64 55 0
-64 -65 -55 0
66 67 0
66 68 0
-66 -67 -68 0
69 70 0
69 71 0
-69 -70 -71 0
72 73 0
72 74 0
-72 -73 -74 0
75 76 0
75 77 0
-75 -76 -77 0
-78 79 0
-78 80 0
78 -79 -80 0
-2 81 0
-2 60 0
2 -81 -60 0
-4 82 0
-4 80 0
4 -82 -80 0
-6 83 0
-6 60 0
6 -83 -60 0
-84 85 0
-84 80 0
84 -85 -80 0
-86 87 0
-86 60 0
86 -87 -60 0
-88 89 0
-88 80 0
88 -89 -80 0
-90 91 0
-90 60 0
90 -91 -60 0
-8 92 0
-8 93 0
8 -92 -93 0
94 -95 0
94 -96 0
-94 95 96 0
97 98 0
97 99 0
-97 -98 -99 0
100 -98 0
100 -99 0
-100 98 99 0
101 102 0
101 103 0
-101 -102 -103 0
104 -102 0
104 -103 0
-104 102 103 0
105 106 0
105 107 0
-105 -106 -107 0
108 -106 0
108 -107 0
-108 106 107 0
109 110 0
109 111 0
-109 -110 -111 0
112 -110 0
112 -111 0
-112 110 111 0
-113 114 0
-113 115 0
113 -114 -115 0
116 117 0
-116 -117 0
-118 63 0
-118 115 0
118 -63 -115 0
-119 55 0
-119 115 0
119 -55 -115 0
-120 121 0
-120 115 0
120 -121 -115 0
122 123 0
122 124 0
-122 -123 -124 0
-125 -55 0
-125 -60 0
125 55 60 0
-126 55 0
-126 60 0
126 -55 -60 0
127 128 0
127 129 0
-127 -128 -129 0
130 -128 0
130 -129 0
-130 128 129 0
131 132 0
131 133 0
-131 -132 -133 0
134 -132 0
134 -133 0
-134 132 133 0
135 136 0
135 137 0
-135 -136 -137 0
138 -136 0
138 -137 0
-138 136 137 0
139 140 0
139 141 0
-139 -140 -141 0
142 -140 0
142 -141 0
-142 140 141 0
-143 144 0
-143 98 0
143 -144 -98 0
-145 144 0
-145 99 0
145 -144 -99 0
-146 144 0
-146 102 0
146 -144 -102 0
-147 144 0
-147 103 0
147 -144 -103 0
-148 144 0
-148 106 0
148 -144 -106 0
-149 150 0
-149 151 0
149 -150 -151 0
-152 144 0
-152 107 0
152 -144 -107 0
-153 150 0
-153 154 0
153 -150 -154 0
-155 144 0
-155 110 0
155 -144 -110 0
-156 150 0
-156 157 0
156 -150 -157 0
10 53 0
-10 -53 0
158 58 0
-158 -58 0
12 -56 0
12 -58 0
-12 56 58 0
159 61 0
-159 -61 0
160 61 0
-160 -61 0
161 64 0
-161 -64 0
-162 -66 0
-162 -69 0
162 66 69 0
163 -66 0
163 -72 0
-163 66 72 0
164 -66 0
164 -75 0
-164 66 75 0
14 84 0
-14 -84 0
165 86 0
-165 -86 0
16 88 0
-16 -88 0
18 90 0
-18 -90 0
166 167 0
166 94 0
-166 -167 -94 0
-20 168 0
-20 94 0
20 -168 -94 0
169 97 0
169 100 0
-169 -97 -100 0
170 101 0
170 104 0
-170 -101 -104 0
171 105 0
171 108 0
-171 -105 -108 0
172 109 0
172 112 0
-172 -109 -112 0
173 116 0
-173 -116 0
-174 -125 0
-174 -126 0
174 125 126 0
175 127 0
175 130 0
-175 -127 -130 0
176 131 0
176 134 0
-176 -131 -134 0
177 135 0
177 138 0
-177 -135 -138 0
178 139 0
178 142 0
-178 -139 -142 0
22 -56 0
22 -158 0
-22 56 158 0
179 159 0
-179 -159 0
24 160 0
-24 -160 0
-180 162 0
-180 181 0
180 -162 -181 0
26 163 0
-26 -163 0
28 164 0
-28 -164 0
30 166 0
-30 -166 0
182 169 0
-182 -169 0
183 170 0
-183 -170 0
-184 169 0
-184 170 0
184 -169 -170 0
185 171 0
-185 -171 0
186 172 0
-186 -172 0
-187 171 0
-187 172 0
187 -171 -172 0
188 161 0
188 165 0
-188 -161 -165 0
189 175 0
-189 -175 0
190 176 0
-190 -176 0
-191 175 0
-191 176 0
191 -175 -176 0
192 177 0
-192 -177 0
193 178 0
-193 -178 0
-194 177 0
-194 178 0
194 -177 -178 0
-195 144 0
-195 173 0
195 -144 -173 0
196 180 0
-196 -180 0
-197 182 0
-197 183 0
197 -182 -183 0
-198 185 0
-198 186 0
198 -185 -186 0
-199 200 0
-199 68 0
199 -200 -68 0
-201 202 0
-201 78 0
201 -202 -78 0
203 204 0
203 68 0
-203 -204 -68 0
205 206 0
205 179 0
-205 -206 -179 0
207 208 0
207 55 0
-207 -208 -55 0
-209 189 0
-209 190 0
209 -189 -190 0
-210 192 0
-210 193 0
210 -192 -193 0
211 196 0
-211 -196 0
-212 -184 0
-212 -197 0
212 184 197 0
-213 -187 0
-213 -198 0
213 187 198 0
214 205 0
214 188 0
-214 -205 -188 0
-215 216 0
-215 199 0
215 -216 -199 0
-217 116 0
-217 201 0
217 -116 -201 0
-218 219 0
-218 199 0
218 -219 -199 0
-220 116 0
-220 201 0
220 -116 -201 0
-221 222 0
-221 199 0
221 -222 -199 0
-223 116 0
-223 201 0
223 -116 -201 0
-224 225 0
-224 199 0
224 -225 -199 0
-226 116 0
-226 201 0
226 -116 -201 0
227 207 0
227 228 0
-227 -207 -228 0
229 -173 0
229 -203 0
-229 173 203 0
230 -173 0
230 -203 0
-230 173 203 0
231 -173 0
231 -203 0
-231 173 203 0
232 -173 0
232 -203 0
-232 173 203 0
-233 -191 0
-233 -209 0
233 191 209 0
-234 -194 0
-234 -210 0
234 194 210 0
235 236 0
235 212 0
-235 -236 -212 0
237 -236 0
237 -212 0
-237 236 212 0
238 213 0
238 239 0
-238 -213 -239 0
240 -213 0
240 -239 0
-240 213 239 0
-241 98 0
-241 214 0
241 -98 -214 0
-242 -215 0
-242 -217 0
242 215 217 0
-243 99 0
-243 214 0
243 -99 -214 0
-244 -218 0
-244 -220 0
244 218 220 0
-245 102 0
-245 214 0
245 -102 -214 0
-246 -221 0
-246 -223 0
246 221 223 0
-247 103 0
-247 214 0
247 -103 -214 0
-248 -224 0
-248 -226 0
248 224 226 0
-249 216 0
-249 227 0
249 -216 -227 0
-250 106 0
-250 214 0
250 -106 -214 0
-251 219 0
-251 227 0
251 -219 -227 0
-252 107 0
-252 214 0
252 -107 -214 0
-253 222 0
-253 227 0
253 -222 -227 0
-254 110 0
-254 214 0
254 -110 -214 0
-255 225 0
-255 227 0
255 -225 -227 0
-256 111 0
-256 214 0
256 -111 -214 0
257 236 0
257 233 0
-257 -236 -233 0
258 -236 0
258 -233 0
-258 236 233 0
259 234 0
259 260 0
-259 -234 -260 0
261 -234 0
261 -260 0
-261 234 260 0
-262 211 0
-262 128 0
262 -211 -128 0
-263 211 0
-263 129 0
263 -211 -129 0
-264 211 0
-264 132 0
264 -211 -132 0
-265 211 0
-265 133 0
265 -211 -133 0
-266 211 0
-266 136 0
266 -211 -136 0
267 211 0
267 137 0
-267 -211 -137 0
268 211 0
268 140 0
-268 -211 -140 0
269 211 0
269 141 0
-269 -211 -141 0
270 235 0
270 237 0
-270 -235 -237 0
271 238 0
271 240 0
-271 -238 -240 0
-272 -113 0
-272 -241 0
272 113 241 0
-273 -118 0
-273 -243 0
273 118 243 0
-274 -119 0
-274 -245 0
274 119 245 0
-275 -120 0
-275 -247 0
275 120 247 0
-276 -249 0
-276 -250 0
276 249 250 0
-277 -251 0
-277 -252 0
277 251 252 0
-278 -253 0
-278 -254 0
278 253 254 0
-279 -255 0
-279 -256 0
279 255 256 0
280 257 0
280 258 0
-280 -257 -258 0
281 259 0
281 261 0
-281 -259 -261 0
282 270 0
-282 -270 0
283 271 0
-283 -271 0
-284 270 0
-284 271 0
284 -270 -271 0
285 272 0
285 242 0
-285 -272 -242 0
286 273 0
286 244 0
-286 -273 -244 0
287 274 0
287 246 0
-287 -274 -246 0
288 275 0
288 248 0
-288 -275 -248 0
289 229 0
289 276 0
-289 -229 -276 0
290 230 0
290 277 0
-290 -230 -277 0
291 231 0
291 278 0
-291 -231 -278 0
292 232 0
292 279 0
-292 -232 -279 0
293 280 0
-293 -280 0
294 281 0
-294 -281 0
-295 280 0
-295 281 0
295 -280 -281 0
-296 282 0
-296 283 0
296 -282 -283 0
-297 293 0
-297 294 0
297 -293 -294 0
298 285 0
298 128 0
-298 -285 -128 0
299 -285 0
299 -128 0
-299 285 128 0
-300 301 0
-300 285 0
300 -301 -285 0
302 286 0
302 129 0
-302 -286 -129 0
303 -286 0
303 -129 0
-303 286 129 0
-304 301 0
-304 286 0
304 -301 -286 0
305 287 0
305 132 0
-305 -287 -132 0
306 -287 0
306 -132 0
-306 287 132 0
-307 301 0
-307 287 0
307 -301 -287 0
308 288 0
308 133 0
-308 -288 -133 0
309 -288 0
309 -133 0
-309 288 133 0
-310 301 0
-310 288 0
310 -301 -288 0
311 289 0
311 136 0
-311 -289 -136 0
312 -289 0
312 -136 0
-312 289 136 0
-313 301 0
-313 289 0
313 -301 -289 0
314 290 0
314 137 0
-314 -290 -137 0
315 -290 0
315 -137 0
-315 290 137 0
-316 301 0
-316 290 0
316 -301 -290 0
317 291 0
317 140 0
-317 -291 -140 0
318 -291 0
318 -140 0
-318 291 140 0
-319 301 0
-319 291 0
319 -301 -291 0
320 292 0
320 141 0
-320 -292 -141 0
321 -292 0
321 -141 0
-321 292 141 0
-322 301 0
-322 292 0
322 -301 -292 0
-32 -284 0
-32 -296 0
32 284 296 0
-34 -295 0
-34 -297 0
34 295 297 0
323 298 0
-323 -298 0
-324 299 0
-324 298 0
324 -299 -298 0
-325 -300 0
-325 -262 0
325 300 262 0
326 302 0
-326 -302 0
-327 303 0
-327 302 0
327 -303 -302 0
-328 -304 0
-328 -263 0
328 304 263 0
329 305 0
-329 -305 0
-330 306 0
-330 305 0
330 -306 -305 0
-331 -307 0
-331 -264 0
331 307 264 0
332 308 0
-332 -308 0
-333 309 0
-333 308 0
333 -309 -308 0
-334 -310 0
-334 -265 0
334 310 265 0
335 311 0
-335 -311 0
-336 312 0
-336 311 0
336 -312 -311 0
-337 -313 0
-337 -266 0
337 313 266 0
338 314 0
-338 -314 0
-339 315 0
-339 314 0
339 -315 -314 0
-340 -149 0
-340 -316 0
340 149 316 0
341 317 0
-341 -317 0
-342 318 0
-342 317 0
342 -318 -317 0
-343 -153 0
-343 -319 0
343 153 319 0
344 320 0
-344 -320 0
-345 321 0
-345 320 0
345 -321 -320 0
-346 -156 0
-346 -322 0
346 156 322 0
347 321 0
347 348 0
-347 -321 -348 0
349 350 0
349 348 0
-349 -350 -348 0
351 352 0
351 348 0
-351 -352 -348 0
353 323 0
-353 -323 0
-354 355 0
-354 324 0
354 -355 -324 0
-356 357 0
-356 323 0
356 -357 -323 0
358 326 0
-358 -326 0
-359 355 0
-359 327 0
359 -355 -327 0
-360 357 0
-360 326 0
360 -357 -326 0
361 329 0
-361 -329 0
-362 355 0
-362 330 0
362 -355 -330 0
-363 357 0
-363 329 0
363 -357 -329 0
364 332 0
-364 -332 0
-365 355 0
-365 333 0
365 -355 -333 0
-366 357 0
-366 332 0
366 -357 -332 0
367 335 0
-367 -335 0
-368 355 0
-368 336 0
368 -355 -336 0
-369 357 0
-369 335 0
369 -357 -335 0
370 338 0
-370 -338 0
-371 355 0
-371 339 0
371 -355 -339 0
-372 357 0
-372 338 0
372 -357 -338 0
373 341 0
-373 -341 0
-374 355 0
-374 342 0
374 -355 -342 0
-375 357 0
-375 341 0
375 -357 -341 0
376 344 0
-376 -344 0
-377 -345 0
-377 -348 0
377 345 348 0
-378 345 0
-378 348 0
378 -345 -348 0
-379 355 0
-379 345 0
379 -355 -345 0
-380 357 0
-380 344 0
380 -357 -344 0
381 318 0
381 344 0
-381 -318 -344 0
382 315 0
382 341 0
-382 -315 -341 0
383 384 0
383 344 0
-383 -384 -344 0
385 306 0
385 332 0
-385 -306 -332 0
386 303 0
386 329 0
-386 -303 -329 0
387 388 0
387 332 0
-387 -388 -332 0
-389 -354 0
-389 -356 0
389 354 356 0
-390 -359 0
-390 -360 0
390 359 360 0
-391 -362 0
-391 -363 0
391 362 363 0
-392 -365 0
-392 -366 0
392 365 366 0
393 394 0
393 351 0
-393 -394 -351 0
-395 -368 0
-395 -369 0
395 368 369 0
396 397 0
396 349 0
-396 -397 -349 0
-398 -371 0
-398 -372 0
398 371 372 0
399 376 0
399 347 0
-399 -376 -347 0
-400 -374 0
-400 -375 0
400 374 375 0
-401 -377 0
-401 -378 0
401 377 378 0
-402 -379 0
-402 -380 0
402 379 380 0
-403 -336 0
-403 -393 0
403 336 393 0
-404 336 0
-404 393 0
404 -336 -393 0
-405 -339 0
-405 -396 0
405 339 396 0
-406 339 0
-406 396 0
406 -339 -396 0
-407 -342 0
-407 -399 0
407 342 399 0
-408 342 0
-408 399 0
408 -342 -399 0
-409 410 0
-409 401 0
409 -410 -401 0
411 312 0
411 393 0
-411 -312 -393 0
412 411 0
412 367 0
-412 -411 -367 0
-413 -403 0
-413 -404 0
413 403 404 0
-414 -405 0
-414 -406 0
414 405 406 0
-415 -407 0
-415 -408 0
415 407 408 0
-416 -155 0
-416 -409 0
416 155 409 0
-417 -333 0
-417 -412 0
417 333 412 0
-418 333 0
-418 412 0
418 -333 -412 0
-419 410 0
-419 413 0
419 -410 -413 0
-420 410 0
-420 414 0
420 -410 -414 0
-421 410 0
-421 415 0
421 -410 -415 0
422 423 0
422 269 0
-422 -423 -269 0
424 309 0
424 412 0
-424 -309 -412 0
425 426 0
425 412 0
-425 -426 -412 0
427 428 0
427 412 0
-427 -428 -412 0
429 430 0
429 427 0
-429 -430 -427 0
431 432 0
431 425 0
-431 -432 -425 0
433 364 0
433 424 0
-433 -364 -424 0
-434 -417 0
-434 -418 0
434 417 418 0
-435 -147 0
-435 -419 0
435 147 419 0
-436 -148 0
-436 -420 0
436 148 420 0
-437 -152 0
-437 -421 0
437 152 421 0
438 422 0
-438 -422 0
-439 -324 0
-439 -429 0
439 324 429 0
-440 324 0
-440 429 0
440 -324 -429 0
-441 -327 0
-441 -431 0
441 327 431 0
-442 327 0
-442 431 0
442 -327 -431 0
-443 -330 0
-443 -433 0
443 330 433 0
-444 330 0
-444 433 0
444 -330 -433 0
-445 410 0
-445 434 0
445 -410 -434 0
446 447 0
446 337 0
-446 -447 -337 0
448 449 0
448 267 0
-448 -449 -267 0
450 451 0
450 268 0
-450 -451 -268 0
36 438 0
-36 -438 0
452 429 0
452 299 0
-452 -429 -299 0
-453 -439 0
-453 -440 0
453 439 440 0
-454 -441 0
-454 -442 0
454 441 442 0
-455 -443 0
-455 -444 0
455 443 444 0
-456 -146 0
-456 -445 0
456 146 445 0
457 446 0
-457 -446 0
458 448 0
-458 -448 0
459 450 0
-459 -450 0
-460 353 0
-460 452 0
460 -353 -452 0
-461 410 0
-461 453 0
461 -410 -453 0
-462 410 0
-462 454 0
462 -410 -454 0
-463 410 0
-463 455 0
463 -410 -455 0
464 465 0
464 334 0
-464 -465 -334 0
38 457 0
-38 -457 0
40 458 0
-40 -458 0
42 459 0
-42 -459 0
44 460 0
-44 -460 0
-466 -195 0
-466 -461 0
466 195 461 0
-467 -143 0
-467 -462 0
467 143 462 0
-468 -145 0
-468 -463 0
468 145 463 0
469 464 0
-469 -464 0
470 471 0
470 325 0
-470 -471 -325 0
472 473 0
472 328 0
-472 -473 -328 0
474 475 0
474 331 0
-474 -475 -331 0
46 469 0
-46 -469 0
476 470 0
-476 -470 0
477 472 0
-477 -472 0
478 474 0
-478 -474 0
48 476 0
-48 -476 0
50 477 0
-50 -477 0
52 478 0
-52 -478 0
-479 228 0
-479 114 0
479 -228 -114 0
-54 479 0
-54 480 0
54 -479 -480 0
-481 228 0
-481 482 0
481 -228 -482 0
-57 481 0
-57 480 0
57 -481 -480 0
-59 73 0
-59 483 0
59 -73 -483 0
-62 228 0
-62 482 0
62 -228 -482 0
-484 228 0
-484 114 0
484 -228 -114 0
-65 484 0
-65 63 0
65 -484 -63 0
-485 228 0
-485 114 0
485 -228 -114 0
-67 485 0
-67 480 0
67 -485 -480 0
-486 123 0
-486 60 0
486 -123 -60 0
-70 486 0
-70 74 0
70 -486 -74 0
-76 123 0
-76 74 0
76 -123 -74 0
-79 73 0
-79 487 0
79 -73 -487 0
-81 73 0
-81 487 0
81 -73 -487 0
-82 73 0
-82 483 0
82 -73 -483 0
-83 73 0
-83 483 0
83 -73 -483 0
-85 123 0
-85 487 0
85 -123 -487 0
-87 123 0
-87 487 0
87 -123 -487 0
-89 123 0
-89 483 0
89 -123 -483 0
-91 123 0
-91 483 0
91 -123 -483 0
-200 122 0
-200 179 0
200 -122 -179 0
-202 179 0
-202 55 0
202 -179 -55 0
-204 179 0
-204 78 0
204 -179 -78 0
-488 174 0
-488 123 0
488 -174 -123 0
-206 488 0
-206 124 0
206 -488 -124 0
-208 179 0
-208 122 0
208 -179 -122 0
-350 318 0
-350 321 0
350 -318 -321 0
-489 315 0
-489 318 0
489 -315 -318 0
-352 489 0
-352 321 0
352 -489 -321 0
-384 315 0
-384 318 0
384 -315 -318 0
-388 303 0
-388 306 0
388 -303 -306 0
-490 370 0
-490 382 0
490 -370 -382 0
-394 490 0
-394 383 0
394 -490 -383 0
-397 373 0
-397 381 0
397 -373 -381 0
-491 416 0
-491 402 0
491 -416 -402 0
-423 491 0
-423 346 0
423 -491 -346 0
-426 306 0
-426 309 0
426 -306 -309 0
-492 303 0
-492 306 0
492 -303 -306 0
-428 492 0
-428 309 0
428 -492 -309 0
-493 358 0
-493 386 0
493 -358 -386 0
-430 493 0
-430 387 0
430 -493 -387 0
-432 361 0
-432 385 0
432 -361 -385 0
-447 435 0
-447 395 0
447 -435 -395 0
-494 436 0
-494 398 0
494 -436 -398 0
-449 494 0
-449 340 0
449 -494 -340 0
-495 437 0
-495 400 0
495 -437 -400 0
-451 495 0
-451 343 0
451 -495 -343 0
-465 456 0
-465 392 0
465 -456 -392 0
-471 466 0
-471 389 0
471 -466 -389 0
-473 467 0
-473 390 0
473 -467 -390 0
-475 468 0
-475 391 0
475 -468 -391 0
